unknown
(model
; cardinality of BoundSet is 2
(declare-sort BoundSet 0)
; rep: @uc_BoundSet_0
; rep: @uc_BoundSet_1
; cardinality of UnboundSet is 1
(declare-sort UnboundSet 0)
(declare-fun groundTerm_3 () UnboundSet)
(define-fun Says ((BOUND_VARIABLE_414 BoundSet) (BOUND_VARIABLE_415 BoundSet)) Bool true)
(define-fun IsGoingExtinct ((BOUND_VARIABLE_418 BoundSet)) Bool true)
(define-fun IsGoingToStarveToDeath ((BOUND_VARIABLE_418 BoundSet)) Bool true)
(define-fun Realizes ((BOUND_VARIABLE_414 BoundSet) (BOUND_VARIABLE_415 BoundSet)) Bool false)
(define-fun IsBearExtinction ((BOUND_VARIABLE_418 BoundSet)) Bool false)
)
sat
(model
; cardinality of BoundSet is 1
(declare-sort BoundSet 0)
; rep: @uc_BoundSet_0
; cardinality of UnboundSet is 1
(declare-sort UnboundSet 0)
(declare-fun groundTerm_5 () UnboundSet)
(define-fun Says ((BOUND_VARIABLE_461 BoundSet) (BOUND_VARIABLE_462 BoundSet)) Bool true)
(define-fun IsGoingExtinct ((BOUND_VARIABLE_465 BoundSet)) Bool true)
(define-fun IsGoingToStarveToDeath ((BOUND_VARIABLE_465 BoundSet)) Bool true)
(define-fun Realizes ((BOUND_VARIABLE_461 BoundSet) (BOUND_VARIABLE_462 BoundSet)) Bool false)
(define-fun IsBearExtinction ((BOUND_VARIABLE_465 BoundSet)) Bool true)
)
